p cnf 7 17 
c Factors encoded in variables 1-4 and 5-7
c Target number: 55
c Factors: 11 x 5
4 7 0
2 6 0
-4 -3 -2 0
1 0
7 6 0
5 0
4 3 2 0
-4 -3 -7 -6 0
-3 -7 0
4 3 6 0
-2 -6 0
-4 7 6 0
3 7 0
6 7 0
3 -6 0
-4 7 -6 0
2 3 4 0
